submitit INFO (2023-04-30 19:21:39,061) - Starting with JobEnvironment(job_id=27533, hostname=cpunode3, local_rank=0(5), node=0(1), global_rank=0(5))
submitit INFO (2023-04-30 19:21:39,061) - Loading pickle: /h/30/pashootan/Matrix-Mult-CP/src/../logs/2x2x2_6_Apr30_19:21:35/27533_submitted.pkl
 ! --------------------------------------------------- CP Optimizer 22.1.1.0 --
 ! Satisfiability problem - 72 variables, 184 constraints
 ! TimeLimit            = 7200
 ! Workers              = 8
 ! LogPeriod            = 10000000
 ! RandomSeed           = 1750
 ! Initial process time : 0.02s (0.02s extraction + 0.00s propagation)
 !  . Log search space  : 114.1 (before), 114.1 (after)
 !  . Memory usage      : 535.3 kB (before), 535.3 kB (after)
 ! Using parallel search with 8 workers.
 ! ----------------------------------------------------------------------------
 !               Branches  Non-fixed    W       Branch decision
                   10000k          6    8   F        -
                   10000k          6    7         0 != V1_2
                   10000k          4    6   F     0  = U4_0
                   10000k          4    5         1  = W4_2
                   10000k          5    2   F     1  = V5_2
                   10000k          7    3         0 != V0_1
                   10000k          4    1         1 != U1_1
                   10000k          5    4        -1  = U1_2
                   20000k          6    8   F    -1 != W2_1
                   20000k          6    7   F    -1  = V2_1
                   20000k          8    3        -1 != V2_0
                   20000k          4    6         1 != W0_2
                   20000k          4    5         0  = U0_2
                   20000k          4    2   F     0 != V1_2
                   20000k          5    4        -1 != V4_2
                   20000k          5    1   F     0  = V0_1
                   30000k          6    8        -1  = W0_0
                   30000k          4    5   F     1 != W4_1
                   30000k          4    6        -1  = V2_0
                   30000k          7    7         0  = U2_1
 ! Time = 312.58s, Average fail depth = 15, Memory usage = 175.8 MB
 !               Branches  Non-fixed    W       Branch decision
                   30000k          7    3         0  = V1_1
                   30000k          4    2         1  = W4_0
                   30000k          5    4         0  = W0_2
                   30000k          5    1   F     0 != U0_1
                   40000k          6    8   F    -1 != U2_2
                   40000k          6    3   F    -1  = V2_1
                   40000k          4    6         0  = V1_0
                   40000k          8    7         1 != W2_2
                   40000k          5    5         0  = U0_1
                   40000k          5    4   F     1  = U5_1
                   40000k          4    2         1 != W2_3
                   40000k          5    1   F     1  = U4_2
                   50000k          5    8   F    -1  = W5_3
                   50000k          8    7         1 != U0_3
                   50000k          5    5   F    -1 != U1_2
                   50000k          4    6   F    -1  = W2_1
                   50000k          7    3   F     0  = V2_1
                   50000k          4    2   F     0  = W2_1
                   50000k          5    4   F     0  = V1_2
                   50000k          5    1   F    -1  = U5_2
 ! Time = 535.33s, Average fail depth = 15, Memory usage = 293.0 MB
 !               Branches  Non-fixed    W       Branch decision
                   60000k          7    8   F     0  = U1_2
                   60000k          5    5         1  = V2_1
                   60000k          9    3   F    -1  = U5_0
                   60000k          4    6         0 != V3_0
                   60000k          8    7   F    -1 != V2_1
                   60000k          5    4         0  = W4_3
                   60000k          5    2   F     1  = V2_2
                   60000k          5    1        -1  = V2_3
                   70000k          6    8         0 != U4_3
                   70000k          7    3   F    -1 != W1_0
                   70000k          4    5         1 != U4_2
                   70000k          7    7   F     0  = V2_3
                   70000k          4    6   F    -1 != W0_2
                   70000k          5    4   F     0  = V3_1
                   70000k          5    1   F     1  = U1_1
                   70000k          9    2   F    -1 != V4_3
                   80000k          9    3        -1  = W2_0
                   80000k          5    8   F     0  = U3_2
                   80000k          5    5   F     1  = U0_3
                   80000k          7    7        -1 != V1_1
 ! Time = 834.86s, Average fail depth = 15, Memory usage = 393.2 MB
 !               Branches  Non-fixed    W       Branch decision
                   80000k          5    4        -1  = V3_3
                   80000k          8    6        -1  = V1_1
                   80000k          6    1   F    -1  = V1_2
                   80000k          4    2         0  = U5_1
                   90000k          6    8   F     1  = V5_1
                   90000k          6    3         0  = V1_1
                   90000k          9    7         0  = V0_1
                   90000k          7    5        -1 != W1_3
                   90000k          5    4        -1  = V4_1
                   90000k          5    1   F    -1 != W3_3
                   90000k          7    6         1 != U0_2
                   90000k          4    2   F     0 != V3_0
                     100M          7    3         1 != W0_2
                     100M          5    8        -1  = W3_3
                     100M          5    4   F     1 != W5_3
                     100M          6    7   F    -1  = U3_0
                     100M          5    5   F     1 != U1_2
                     100M          5    1         1  = V3_3
                     100M          4    2   F     1  = V5_3
                     100M          4    6         1 != V1_0
 ! Time = 1071.61s, Average fail depth = 16, Memory usage = 450.6 MB
 !               Branches  Non-fixed    W       Branch decision
                     110M          9    3   F     1  = V1_1
                     110M          6    8        -1  = V3_2
                     110M          6    7         1  = U0_2
                     110M          5    4   F     0  = U3_3
                     110M          5    5        -1 != W3_1
                     110M          5    1         1  = U3_1
                     110M          5    2         0  = W3_1
                     110M          4    6         1 != U2_1
                     120M          8    3   F     0 != W4_0
                     120M          6    8         1 != W3_1
                     120M          5    4         0 != V1_2
                     120M          7    7   F    -1  = V3_1
                     120M          4    5   F    -1 != V4_1
                     120M          4    2         0 != U1_1
                     120M          6    1        -1  = W1_2
                     120M          4    6   F     1  = U5_2
                     130M         11    3   F    -1 != U3_1
                     130M          6    8   F        -
                     130M          5    4         0 != V0_2
                     130M         10    7         0 != W0_1
 ! Time = 1365.70s, Average fail depth = 16, Memory usage = 571.1 MB
 !               Branches  Non-fixed    W       Branch decision
                     130M          5    5         0 != U4_3
                     130M          5    1   F     1  = V2_2
                     130M          4    2        -1 != U0_3
                     130M          4    6   F     1 != U0_2
                     140M         11    3        -1 != V3_3
                     140M          6    8        -1  = W0_0
                     140M          9    7   F    -1  = U3_0
                     140M          5    4         0  = V3_2
                     140M          5    5         0 != W5_2
                     140M          4    2         0 != W3_2
                     140M          6    1         0  = W3_2
                     140M          4    6   F    -1  = W4_2
                     150M          6    8   F     0 != W4_3
                     150M          7    3   F     0 != W1_0
                     150M          5    4        -1 != U2_1
                     150M          7    7         0 != U0_3
                     150M          5    5   F    -1  = V4_2
                     150M          4    2   F     1  = W0_1
                     150M          5    1   F     1  = U3_2
                     150M          4    6   F    -1  = W2_3
 ! Time = 1592.58s, Average fail depth = 16, Memory usage = 661.3 MB
 !               Branches  Non-fixed    W       Branch decision
                     160M          6    8         1  = V2_3
                     160M          8    3   F    -1  = W2_0
                     160M          6    7         0  = W1_1
                     160M          6    4         0 != U3_1
                     160M          5    5   F     0  = U0_1
                     160M          5    2   F     1  = U4_1
                     160M          5    1         0  = V4_2
                     160M          4    6         1 != W3_3
                     170M          6    8        -1 != U3_2
                     170M         10    3   F     0  = W3_1
                     170M          9    7   F     1  = W2_2
                     170M          6    4   F    -1  = V0_2
                     170M          5    5   F    -1  = W0_0
                     170M          4    2   F     1 != U3_2
                     170M          4    6   F     1  = W5_2
                     170M          5    1         1 != V1_0
                     180M          6    8        -1  = V3_1
                     180M          7    3        -1  = V3_0
                     180M         10    7         0  = V1_3
                     180M          5    4         1 != U0_3
 ! Time = 1884.27s, Average fail depth = 16, Memory usage = 778.9 MB
 !               Branches  Non-fixed    W       Branch decision
                     180M          5    5         0 != V5_3
                     180M          5    2   F     0  = V5_3
                     180M          5    1        -1  = V4_2
                     180M          5    6   F     0 != V2_2
                     190M          6    8            -
                     190M          8    3   F     1  = V0_2
                     190M          8    7        -1  = V3_0
                     190M          5    4         1  = W1_2
                     190M          5    5        -1 != V2_3
                     190M          4    2   F    -1  = U5_3
                     190M          5    1   F    -1  = W0_1
                     190M          4    6        -1 != U5_2
                     200M          6    8         1  = V2_0
                     200M         10    7   F    -1 != U4_1
                     200M          6    3   F    -1  = V1_1
                     200M          5    4         1 != V4_3
                     200M          5    5   F     0 != V5_1
                     200M          4    2        -1 != W5_3
                     200M          5    6   F     1  = V1_3
                     200M          6    1         0  = U2_2
 ! Time = 2112.02s, Average fail depth = 16, Memory usage = 871.8 MB
 !               Branches  Non-fixed    W       Branch decision
                     210M          6    8   F     0 != W4_1
                     210M          6    7         1 != V5_2
                     210M          9    3   F    -1 != U0_0
                     210M          5    4         1 != W2_1
                     210M          5    5   F     1  = W0_2
                     210M          4    6        -1 != U1_2
                     210M          4    2        -1 != V1_2
                     210M          6    1        -1 != V5_0
                     220M          4    8   F    -1 != W4_2
                     220M          8    7   F    -1  = U4_3
                     220M         12    3         1  = V0_2
                     220M          5    4   F     1  = U5_2
                     220M          4    6        -1  = V1_3
                     220M          5    5   F     1 != W3_3
                     220M          4    2        -1  = W2_3
                     220M          5    1   F    -1  = V0_2
                     230M          6    8   F    -1 != V3_3
                     230M          8    3         0 != W4_3
                     230M          5    4         1 != U0_0
                     230M          4    5   F    -1 != W4_1
 ! Time = 2413.02s, Average fail depth = 16, Memory usage = 993.7 MB
 !               Branches  Non-fixed    W       Branch decision
                     230M          4    6         1  = W2_3
                     230M          7    7   F    -1  = V2_1
                     230M          4    2         0  = W0_3
                     230M          5    1   F     0  = V1_2
                     240M          6    8         1  = V2_2
                     240M          5    4        -1  = V5_1
                     240M          9    3        -1 != U4_3
                     240M          5    5         0 != W5_3
                     240M          4    6         1  = W1_3
                     240M          7    7        -1 != W3_1
                     240M          4    1         1  = U2_1
                     240M          4    2        -1  = W3_0
                     250M          5    8         1  = W3_1
                     250M          5    4   F     1 != V2_2
                     250M          7    3         1  = W4_2
                     250M          8    7        -1  = V1_2
                     250M          5    5   F     1  = W3_0
                     250M          5    6        -1 != V0_3
                     250M          4    1        -1  = U5_2
                     250M          4    2   F    -1  = W4_1
 ! Time = 2652.56s, Average fail depth = 16, Memory usage = 1.1 GB
 !               Branches  Non-fixed    W       Branch decision
                     260M          5    8        -1 != U5_3
                     260M          5    3         0  = V5_2
                     260M         11    7   F     0  = U2_0
                     260M          5    4   F    -1 != U3_3
                     260M          5    5   F    -1  = V5_2
                     260M          4    6   F    -1  = U2_3
                     260M          4    1   F    -1  = V0_2
                     260M          4    2         0 != W4_1
                     270M          5    8   F    -1  = U3_0
                     270M         10    3   F    -1 != U2_3
                     270M          5    4         1  = W4_2
                     270M          5    5   F     0 != V2_3
                     270M          7    7   F     0  = V0_2
                     270M          4    6   F     1  = U0_1
                     270M          4    1   F     1 != W2_0
                     270M          4    2   F     1 != V0_0
                     280M          6    8        -1 != W2_2
                     280M         10    3   F     1  = U2_0
                     280M          5    4         0 != W0_3
                     280M          5    5   F     0  = U3_1
 ! Time = 2933.68s, Average fail depth = 16, Memory usage = 1.2 GB
 !               Branches  Non-fixed    W       Branch decision
                     280M          7    7   F    -1 != V3_0
                     280M          4    6   F     1 != W1_1
                     280M          4    1   F    -1 != W4_1
                     280M          4    2   F     1  = U5_3
                     290M          5    8        -1  = U1_2
                     290M          5    4   F     1 != W0_0
                     290M          7    3   F     0 != V3_3
                     290M         10    7   F     1 != U3_2
                     290M          5    5   F    -1 != V0_3
                     290M          4    6         1 != U4_2
                     290M          4    1        -1  = U0_1
                     290M          5    2         0 != V2_0
                     300M          5    8         1 != W3_3
                     300M          5    4   F    -1  = U4_2
                     300M         10    3        -1  = W2_0
                     300M          5    5   F    -1 != W3_3
                     300M          4    6   F     1  = U0_3
                     300M          6    7         0 != V0_3
                     300M          4    1         0 != U4_3
                     300M          4    2   F    -1 != V5_3
 ! Time = 3184.15s, Average fail depth = 16, Memory usage = 1.3 GB
 !               Branches  Non-fixed    W       Branch decision
                     310M          5    8            -
                     310M          5    4         0 != U2_3
                     310M          7    3         1  = U4_1
                     310M          5    5         0 != U3_1
                     310M          8    7   F    -1  = V3_0
                     310M          4    6   F    -1  = W1_1
                     310M          5    2         1  = V3_0
                     310M          4    1   F     0  = W5_3
                     320M          6    8   F    -1 != U4_2
                     320M          5    4   F     1  = U5_0
                     320M          5    3        -1 != U0_0
                     320M          4    5   F     0  = V1_2
                     320M          6    7         0  = V1_2
                     320M          4    6   F    -1  = V3_0
                     320M          5    2         1  = U1_1
                     320M          4    1         0 != U4_2
                     330M          5    8   F     1 != W0_1
                     330M          5    4   F    -1 != W4_3
                     330M         14    3         1 != W5_0
                     330M          4    5         1 != U4_3
 ! Time = 3454.97s, Average fail depth = 16, Memory usage = 1.4 GB
 !               Branches  Non-fixed    W       Branch decision
                     330M          6    7        -1 != W3_1
                     330M          4    6        -1 != V1_0
                     330M          4    2   F    -1  = V0_1
                     330M          4    1        -1 != U2_3
                     340M          5    8   F    -1 != V1_2
                     340M          5    4   F     1 != U1_3
                     340M          5    5        -1 != U5_1
                     340M         12    3        -1 != W3_0
                     340M          9    7        -1  = V3_3
                     340M          4    6        -1  = V0_1
                     340M          4    2        -1 != U4_3
                     340M          4    1        -1  = W4_3
                     350M          6    8   F     0  = U3_0
                     350M          5    4        -1 != W5_2
                     350M          5    5        -1  = V3_2
                     350M          7    3         0  = V5_2
                     350M          5    6         1 != U0_3
                     350M         11    7   F     0  = U3_0
                     350M          4    2        -1 != U4_2
                     350M          4    1         0 != V3_3
 ! Time = 3713.82s, Average fail depth = 16, Memory usage = 1.5 GB
 !               Branches  Non-fixed    W       Branch decision
                     360M          6    8   F    -1  = U4_1
                     360M          5    4   F     0  = U3_2
                     360M         15    3         0  = V2_1
                     360M          5    5         1  = V2_3
                     360M          9    7        -1 != V2_1
                     360M          4    6   F    -1  = V1_3
                     360M          5    2         0 != W2_3
                     360M          4    1   F     0  = V5_0
                     370M          5    8   F     0  = U2_2
                     370M          5    4         0 != U3_2
                     370M          7    3   F    -1 != W3_1
                     370M          5    5        -1  = U5_2
                     370M          7    7        -1  = U4_2
                     370M          4    6   F     0  = W1_3
                     370M          4    2   F     0  = V3_2
                     370M          4    1   F     1  = U4_3
                     380M          5    8   F     0  = W3_1
                     380M          5    4   F     0  = V4_0
                     380M          9    3   F     1  = V3_2
                     380M          6    5   F     0  = U0_1
 ! Time = 3976.64s, Average fail depth = 16, Memory usage = 1.6 GB
 !               Branches  Non-fixed    W       Branch decision
                     380M          6    7        -1  = V4_2
                     380M          5    6         1  = U2_1
                     380M          4    2         1  = V0_1
                     380M          4    1         1 != W0_2
                     390M          5    8   F    -1  = W5_2
                     390M          5    4   F     1  = W5_2
                     390M         13    3         1  = U5_3
                     390M          5    5   F    -1  = W4_0
                     390M         12    7         1 != U4_1
                     390M          5    2        -1 != V3_3
                     390M          5    6   F     1 != U2_1
                     390M          4    1         1  = V3_0
                     400M          5    8   F    -1 != U2_0
                     400M          5    4   F     1  = U1_1
                     400M          6    3   F     0 != V5_2
                     400M          5    5        -1  = W5_2
                     400M          7    7   F     1  = U3_0
                     400M          5    6   F    -1  = W5_2
                     400M          4    2        -1 != W5_0
                     400M          4    1   F     1  = W0_1
 ! Time = 4236.09s, Average fail depth = 16, Memory usage = 1.7 GB
 !               Branches  Non-fixed    W       Branch decision
                     410M          5    4         1 != V2_0
                     410M          5    8   F    -1 != U0_2
                     410M          4    5         1  = V1_1
                     410M          6    3   F     0  = U0_2
                     410M          4    6   F     1 != V0_3
                     410M          7    7         0 != V1_0
                     410M          4    2   F     1  = U5_2
                     410M          4    1   F    -1  = W2_1
                     420M          5    4   F    -1  = W4_1
                     420M          6    8        -1  = W1_2
                     420M         15    3   F    -1  = V2_1
                     420M          5    5         0  = U2_1
                     420M          5    6         0  = V5_3
                     420M          9    7   F     0 != V1_1
                     420M          4    2   F    -1 != W2_3
                     420M          4    1         1  = U1_1
                     430M          5    4   F    -1  = W2_1
                     430M          5    8         1 != W0_2
                     430M          7    3        -1  = U2_1
                     430M          5    5         1  = U2_2
 ! Time = 4493.61s, Average fail depth = 16, Memory usage = 1.8 GB
 !               Branches  Non-fixed    W       Branch decision
                     430M          4    6         1  = U1_0
                     430M         14    7        -1 != V1_1
                     430M          4    2   F    -1  = U2_1
                     430M          4    1         1 != V4_2
                     440M          5    8         0 != V2_3
                     440M          5    4         1 != W3_0
                     440M          8    3   F     0 != W4_0
                     440M          5    5   F     0  = V0_1
                     440M          4    6   F     1 != U0_2
                     440M          7    7   F     0 != U1_0
                     440M          5    2        -1 != U1_3
                     440M          4    1         0 != W1_3
                     450M          5    8   F     1 != U2_2
                     450M          5    4         1  = V3_1
                     450M         12    3   F    -1 != U5_0
                     450M          6    5   F     0  = U0_2
                     450M          4    6   F     0  = V4_3
                     450M          7    7        -1  = V3_0
                     450M          4    2        -1  = V4_2
                     450M          4    1   F    -1 != V5_3
 ! Time = 4763.18s, Average fail depth = 16, Memory usage = 1.9 GB
 !               Branches  Non-fixed    W       Branch decision
                     460M          5    8         0 != U0_2
                     460M          5    4        -1 != U2_0
                     460M          5    5   F     0  = W0_1
                     460M          7    3   F     0  = U0_1
                     460M          4    6   F     0  = U3_0
                     460M          8    7   F     1  = V3_3
                     460M          5    2   F     1 != U3_1
                     460M          4    1   F    -1 != W2_3
                     470M          5    8         0  = W3_3
                     470M          5    5         0 != U5_1
                     470M          7    4   F     0  = W2_1
                     470M          4    6   F    -1  = U5_2
                     470M          7    3   F    -1  = V2_1
                     470M          5    2         0 != U0_3
                     470M          5    7        -1  = U2_2
                     470M          4    1         0  = W0_1
                     480M          5    8   F     1 != V5_1
                     480M          5    4         0 != V5_0
                     480M          5    5   F     0  = U0_1
                     480M          4    6   F     1  = W3_3
 ! Time = 5035.63s, Average fail depth = 16, Memory usage = 2.0 GB
 !               Branches  Non-fixed    W       Branch decision
                     480M         14    3   F     0  = V2_2
                     480M          4    2         1  = W5_2
                     480M          4    1   F     1  = W0_1
                     480M          8    7        -1  = U1_0
                     490M          5    8   F     0  = W5_3
                     490M          5    5         0 != U2_3
                     490M          5    4         1 != U1_0
                     490M          4    6         0 != V2_3
                     490M         15    3        -1 != U5_0
                     490M          4    2   F     1 != V2_3
                     490M          4    1   F     0  = U2_3
                     490M          8    7        -1  = V2_1
                     500M          5    8   F    -1 != U2_2
                     500M          6    5   F    -1  = U2_1
                     500M          5    4         0 != U4_1
                     500M         10    3         0 != W2_1
                     500M          5    6         1 != V4_3
                     500M          4    2   F     0  = V3_3
                     500M          4    1   F    -1  = V1_0
                     500M         15    7   F     0 != U4_2
 ! Time = 5277.86s, Average fail depth = 16, Memory usage = 2.1 GB
 !               Branches  Non-fixed    W       Branch decision
                     510M          5    8        -1  = V5_0
                     510M          4    5   F    -1  = W4_2
                     510M          6    4        -1 != V0_1
                     510M          8    3   F    -1 != U3_1
                     510M          4    6         0 != V1_3
                     510M          4    2   F     1  = U3_3
                     510M          7    7         0  = W1_0
                     510M          4    1         0  = V4_1
                     520M          5    8        -1 != V0_2
                     520M          4    4   F     1 != W4_1
                     520M          5    5         0 != W0_0
                     520M          4    6         1 != U3_1
                     520M          8    3   F    -1  = W0_1
                     520M          4    2   F    -1  = W2_1
                     520M          7    7   F    -1  = V5_0
                     520M          4    1         1  = U4_2
                     530M          5    8         0  = V3_2
                     530M          4    4        -1  = U5_2
                     530M          5    5   F    -1  = V4_0
                     530M          9    3   F    -1  = W3_3
 ! Time = 5555.50s, Average fail depth = 16, Memory usage = 2.3 GB
 !               Branches  Non-fixed    W       Branch decision
                     530M          5    6   F    -1  = U2_0
                     530M          4    2   F     0  = W1_0
                     530M         12    7   F     1  = W4_2
                     530M          4    1   F     0  = U5_2
                     540M          5    8   F    -1  = W4_3
                     540M          4    4   F     0  = U3_0
                     540M          5    5   F     1  = W3_3
                     540M          5    6   F     1 != W2_0
                     540M          8    3   F    -1  = W5_3
                     540M         10    7   F     0  = V1_1
                     540M          5    2   F     1 != V2_3
                     540M          4    1         1 != W3_1
                     550M          6    8         0 != V0_3
                     550M          4    4   F     1  = W3_1
                     550M          5    5   F     1 != W1_3
                     550M          5    6         0  = W2_2
                     550M          4    1         0 != W0_2
                     550M         11    7   F     1 != U2_2
                     550M          4    2         0 != U3_2
                     550M          8    3   F    -1 != U5_3
 ! Time = 5804.31s, Average fail depth = 16, Memory usage = 2.3 GB
 !               Branches  Non-fixed    W       Branch decision
                     560M          5    8         1 != V3_3
                     560M          4    4   F    -1  = V5_2
                     560M          5    5   F    -1 != V5_2
                     560M          4    6   F    -1  = W3_3
                     560M          4    1        -1  = U3_1
                     560M          8    7        -1 != U3_0
                     560M          8    3   F     1  = W1_2
                     560M          6    2   F     1  = U4_2
                     570M          5    8        -1 != V4_3
                     570M          4    4   F     0  = W4_3
                     570M          5    5         1 != U1_3
                     570M          5    6   F     1  = W0_1
                     570M          4    2         0  = V4_0
                     570M          7    3        -1  = V2_1
                     570M          4    1   F     1 != W0_0
                     570M         13    7        -1 != V1_1
                     580M          5    8         0 != W2_1
                     580M          4    4   F     0  = U4_1
                     580M          5    5   F     0  = U2_1
                     580M          4    6   F     0 != V5_2
 ! Time = 6067.20s, Average fail depth = 16, Memory usage = 2.5 GB
 !               Branches  Non-fixed    W       Branch decision
                     580M          4    2         0 != V4_0
                     580M         14    3   F    -1  = V3_1
                     580M         15    7         0  = W1_3
                     580M          4    1        -1 != V2_0
                     590M          5    8   F    -1  = V0_2
                     590M         10    4         0 != U4_1
                     590M          5    5        -1 != U0_1
                     590M          4    6   F     1  = W0_3
                     590M          6    3   F     1  = U5_3
                     590M          5    7         0 != V1_1
                     590M          4    2   F    -1  = V1_0
                     590M          4    1   F     1  = U3_1
                     600M          5    8         0 != U2_1
                     600M          4    4         1 != W1_1
                     600M          5    5   F    -1  = W4_2
                     600M         10    6        -1  = V1_0
                     600M          9    3        -1 != V1_1
                     600M          7    7        -1  = W4_0
                     600M          5    2        -1 != V5_0
                     600M          4    1         0 != W5_1
 ! Time = 6313.64s, Average fail depth = 16, Memory usage = 2.6 GB
 !               Branches  Non-fixed    W       Branch decision
                     610M          4    4        -1  = W2_2
                     610M          5    8        -1 != V0_1
                     610M          6    5         0 != W1_2
                     610M          4    6         0 != V4_3
                     610M         12    3         1  = U4_1
                     610M          6    7         0  = W2_2
                     610M          4    1   F     0  = V2_3
                     610M          4    2        -1 != V0_2
                     620M          4    4   F    -1  = V4_2
                     620M          5    8            -
                     620M          6    5   F     0  = W2_3
                     620M          4    6         1 != U2_2
                     620M         13    3         1  = V4_1
                     620M         11    7   F    -1  = V4_2
                     620M          4    2         1 != W3_0
                     620M          4    1   F    -1 != V2_3
                     630M          4    4   F     1 != V5_2
                     630M          6    8   F     1 != U3_1
                     630M          5    5   F     1 != V4_1
                     630M          4    6        -1 != V5_0
 ! Time = 6610.27s, Average fail depth = 16, Memory usage = 2.7 GB
 !               Branches  Non-fixed    W       Branch decision
                     630M          6    3   F     1 != U3_0
                     630M         11    7   F     1  = V2_1
                     630M          4    2   F     0  = V0_0
                     630M          4    1        -1 != W5_3
                     640M          4    4        -1 != U0_3
                     640M          5    8        -1 != U2_2
                     640M          5    5         0 != V0_0
                     640M          4    6         0 != U3_2
                     640M          4    2   F     0 != V3_1
                     640M          9    7         0  = U0_2
                     640M          7    3        -1  = U2_3
                     640M          4    1   F     1 != W2_2
                     650M          5    8        -1 != W2_1
                     650M          4    4   F    -1 != U4_1
                     650M          5    5   F     0  = W0_3
                     650M          5    6         0  = U1_3
                     650M          5    2         0 != V4_0
                     650M          6    7   F     1  = U4_1
                     650M          9    3        -1 != U4_2
                     650M          9    1   F     0  = U1_2
 ! Time = 6840.29s, Average fail depth = 16, Memory usage = 2.8 GB
 !               Branches  Non-fixed    W       Branch decision
                     660M          4    8   F        -
                     660M          4    4         0  = V0_0
                     660M          7    5   F    -1  = U1_1
                     660M          5    6        -1 != V1_2
                     660M          4    2   F     0 != V2_2
                     660M          6    7         0 != U5_2
                     660M          4    1         1 != U3_1
                     660M         12    3   F     0 != V1_2
                     670M          4    8   F     1 != U1_2
                     670M          4    4         1 != U4_3
                     670M          5    5         0 != W3_3
                     670M          5    6        -1  = U0_3
                     670M          5    2   F     0  = U2_2
                     670M         15    3   F     0 != V2_1
                     670M          4    1         1 != U5_1
                     670M          7    7        -1 != V2_1
                     680M          4    8         1  = V1_1
                     680M          4    4        -1 != V2_1
                     680M          6    5         0 != V0_2
                     680M          4    6        -1 != V0_3
 ! Time = 7118.68s, Average fail depth = 16, Memory usage = 2.9 GB
 !               Branches  Non-fixed    W       Branch decision
                     680M          8    3        -1 != U4_3
                     680M          4    2         0  = U4_3
                     680M         14    7        -1 != V1_2
                     680M          4    1        -1 != V5_1
submitit WARNING (2023-04-30 21:20:42,316) - Bypassing signal SIGCONT
submitit INFO (2023-04-30 21:20:42,316) - Job has timed out. Ran 119 minutes out of requested 121 minutes.
submitit WARNING (2023-04-30 21:20:42,317) - Caught signal SIGUSR2 on cpunode3: this job is timed-out.
submitit INFO (2023-04-30 21:20:42,317) - Job not requeued because: timed-out and not checkpointable.
submitit ERROR (2023-04-30 21:20:42,346) - Submitted job triggered an exception
